Route #1: 33 26 90 102 92 52 22
Route #2: 1 53 103 28 101 12 104 24
Route #3: 51 87 60 76 15 44 5
Route #4: 96 45 100 43 93 97 46 66
Route #5: 25 56 19 79 37 27 71
Route #6: 49 99 21 85 54 13 57
Route #7: 63 31 40 77 2 48 83 58 14
Route #8: 8 91 36 69 17 64 105 94
Route #9: 86 18 41 10 73 35 20
Route #10: 32 30 38 89 59 95 47 68
Route #11: 42 3 55 23 98 4 70 6
Route #12: 61 80 39 81 50 65 16 88
Route #13: 74 11 67 34 72 29 82
Route #14: 78 7 84 9 75 62
Cost 28096
